multiobj/instances/uniform/Ter.5.2.0.40.2.in
5 2
0 468 183 274 334 
468 0 166 343 169 
183 166 0 751 345 
274 343 751 0 397 
334 169 345 397 0 
0 958 571 513 290 
958 0 200 656 542 
571 200 0 715 634 
513 656 715 0 74 
290 542 634 74 0 
0 703 877 698 213 
703 0 51 998 306 
877 51 0 766 971 
698 998 766 0 99 
213 306 971 99 0 
