multiobj/solutions/Ter.5.2.0.40.2.out
1 2
4 1 0 2 3 
2786536 3024342 
